sat
(:max-memory          18.47
 :memory              18.07
 :nlsat-conflicts     9
 :nlsat-decisions     10
 :nlsat-learned-added 9
 :nlsat-propagations  54
 :nlsat-stages        8
 :num-allocs          31815
 :rlimit-count        71955
 :time                0.05
 :total-time          0.06)
